NAME : XML100_1153_18
DIMENSION : 101
NB_CLUSTERS : 3
CLUSTERING_ALG : KMedoids
CLUSTERING_PARAMS : k(2)
CLUSTERS
1 0
2 4 9 12 13 14 18 19 21 23 25 26 27 28 29 30 31 32 34 35 36 39 40 41 43 46 47 51 53 55 56 59 61 62 63 64 65 67 72 73 74 76 78 79 81 82 83 84 86 87 91 94 96 98 100
3 1 2 3 5 6 7 8 10 11 15 16 17 20 22 24 33 37 38 42 44 45 48 49 50 52 54 57 58 60 66 68 69 70 71 75 77 80 85 88 89 90 92 93 95 97 99
EOF